Route #1: 26 12 72 39 9 32 44 3 40 17 51 6
Route #2: 68 2 74 21 61 69 71 60 70 20 37 36 47 48
Route #3: 30 28 22 62 73 1 43 42 64 41 56 23 63
Route #4: 33 16 49 24 18 50 25 55 31 10 58
Route #5: 38 65 11 66 59 14 53 35 7
Route #6: 34 52 27 45 29 5 15 57 13 54 19 8 46
Route #7: 67 4 75
Cost 706